p cnf 88 420
c p weight 12 0 0
c p weight -12 1 0
c p weight 13 1.0 0
c p weight -13 1 0
c p weight 20 0 0
c p weight -20 1 0
c p weight 21 1.0 0
c p weight -21 1 0
c p weight 28 0 0
c p weight -28 1 0
c p weight 29 1.0 0
c p weight -29 1 0
c p weight 39 0 0
c p weight -39 1 0
c p weight 40 1.0 0
c p weight -40 1 0
c p weight 47 0 0
c p weight -47 1 0
c p weight 48 1.0 0
c p weight -48 1 0
c p weight 55 0 0
c p weight -55 1 0
c p weight 56 1.0 0
c p weight -56 1 0
c p weight 66 0 0
c p weight -66 1 0
c p weight 67 1.0 0
c p weight -67 1 0
c p weight 74 0 0
c p weight -74 1 0
c p weight 75 1.0 0
c p weight -75 1 0
c p weight 85 0 0
c p weight -85 1 0
c p weight 86 1.0 0
c p weight -86 1 0
8 -7 1 0
8 -7 2 0
-8 7 1 0
-8 7 2 0
8 7 -1 -2 0
-8 -7 -1 -2 0
9 1 -2 0
9 -1 2 0
-9 1 2 0
-9 -1 -2 0
10 11 -8 0
10 -8 9 0
-10 11 8 0
-10 8 9 0
10 -8 -1 0
-10 8 -1 0
10 -11 8 1 -9 0
-10 -11 -8 1 -9 0
11 -1 9 0
-11 1 9 0
-12 9 0
11 -12 -1 0
-11 -12 1 0
11 12 1 -9 0
-11 12 -1 -9 0
-13 9 0
11 -13 1 0
-11 -13 -1 0
11 13 -1 -9 0
-11 13 1 -9 0
14 -10 11 0
14 -10 9 0
-14 10 11 0
-14 10 9 0
14 10 -11 -9 0
-14 -10 -11 -9 0
15 11 -9 0
15 -11 9 0
-15 11 9 0
-15 -11 -9 0
16 -14 3 0
16 -14 4 0
-16 14 3 0
-16 14 4 0
16 14 -3 -4 0
-16 -14 -3 -4 0
17 3 -4 0
17 -3 4 0
-17 3 4 0
-17 -3 -4 0
18 19 -16 0
18 -16 17 0
-18 19 16 0
-18 16 17 0
18 -16 -3 0
-18 16 -3 0
18 -19 16 3 -17 0
-18 -19 -16 3 -17 0
19 -3 17 0
-19 3 17 0
-20 17 0
19 -20 -3 0
-19 -20 3 0
19 20 3 -17 0
-19 20 -3 -17 0
-21 17 0
19 -21 3 0
-19 -21 -3 0
19 21 -3 -17 0
-19 21 3 -17 0
22 -18 19 0
22 -18 17 0
-22 18 19 0
-22 18 17 0
22 18 -19 -17 0
-22 -18 -19 -17 0
23 19 -17 0
23 -19 17 0
-23 19 17 0
-23 -19 -17 0
24 -22 19 0
24 -22 23 0
-24 22 19 0
-24 22 23 0
24 22 -19 -23 0
-24 -22 -19 -23 0
25 19 -23 0
25 -19 23 0
-25 19 23 0
-25 -19 -23 0
26 27 -24 0
26 -24 25 0
-26 27 24 0
-26 24 25 0
26 -24 -19 0
-26 24 -19 0
26 -27 24 19 -25 0
-26 -27 -24 19 -25 0
27 -19 25 0
-27 19 25 0
-28 25 0
27 -28 -19 0
-27 -28 19 0
27 28 19 -25 0
-27 28 -19 -25 0
-29 25 0
27 -29 19 0
-27 -29 -19 0
27 29 -19 -25 0
-27 29 19 -25 0
30 -26 27 0
30 -26 25 0
-30 26 27 0
-30 26 25 0
30 26 -27 -25 0
-30 -26 -27 -25 0
31 27 -25 0
31 -27 25 0
-31 27 25 0
-31 -27 -25 0
32 -30 11 0
32 -30 31 0
-32 30 11 0
-32 30 31 0
32 -30 27 -15 0
32 -30 -27 15 0
-32 30 27 -15 0
-32 30 -27 15 0
32 30 -11 27 15 -31 0
32 30 -11 -27 -15 -31 0
-32 -30 -11 27 15 -31 0
-32 -30 -11 -27 -15 -31 0
34 11 -27 0
34 -11 27 0
-34 11 27 0
-34 -11 -27 0
33 15 -31 0
33 -15 31 0
-33 15 31 0
-33 -15 -31 0
35 -32 34 0
35 -32 31 0
-35 32 34 0
-35 32 31 0
35 32 -34 -31 0
-35 -32 -34 -31 0
36 34 -31 0
36 -34 31 0
-36 34 31 0
-36 -34 -31 0
37 38 -35 0
37 -35 36 0
-37 38 35 0
-37 35 36 0
37 -35 -34 0
-37 35 -34 0
37 -38 35 34 -36 0
-37 -38 -35 34 -36 0
38 -34 36 0
-38 34 36 0
-39 36 0
38 -39 -34 0
-38 -39 34 0
38 39 34 -36 0
-38 39 -34 -36 0
-40 36 0
38 -40 34 0
-38 -40 -34 0
38 40 -34 -36 0
-38 40 34 -36 0
41 -37 38 0
41 -37 36 0
-41 37 38 0
-41 37 36 0
41 37 -38 -36 0
-41 -37 -38 -36 0
42 38 -36 0
42 -38 36 0
-42 38 36 0
-42 -38 -36 0
43 -41 5 0
43 -41 6 0
-43 41 5 0
-43 41 6 0
43 41 -5 -6 0
-43 -41 -5 -6 0
44 5 -6 0
44 -5 6 0
-44 5 6 0
-44 -5 -6 0
45 46 -43 0
45 -43 44 0
-45 46 43 0
-45 43 44 0
45 -43 -5 0
-45 43 -5 0
45 -46 43 5 -44 0
-45 -46 -43 5 -44 0
46 -5 44 0
-46 5 44 0
-47 44 0
46 -47 -5 0
-46 -47 5 0
46 47 5 -44 0
-46 47 -5 -44 0
-48 44 0
46 -48 5 0
-46 -48 -5 0
46 48 -5 -44 0
-46 48 5 -44 0
49 -45 46 0
49 -45 44 0
-49 45 46 0
-49 45 44 0
49 45 -46 -44 0
-49 -45 -46 -44 0
50 46 -44 0
50 -46 44 0
-50 46 44 0
-50 -46 -44 0
51 -49 46 0
51 -49 50 0
-51 49 46 0
-51 49 50 0
51 49 -46 -50 0
-51 -49 -46 -50 0
52 46 -50 0
52 -46 50 0
-52 46 50 0
-52 -46 -50 0
53 54 -51 0
53 -51 52 0
-53 54 51 0
-53 51 52 0
53 -51 -46 0
-53 51 -46 0
53 -54 51 46 -52 0
-53 -54 -51 46 -52 0
54 -46 52 0
-54 46 52 0
-55 52 0
54 -55 -46 0
-54 -55 46 0
54 55 46 -52 0
-54 55 -46 -52 0
-56 52 0
54 -56 46 0
-54 -56 -46 0
54 56 -46 -52 0
-54 56 46 -52 0
57 -53 54 0
57 -53 52 0
-57 53 54 0
-57 53 52 0
57 53 -54 -52 0
-57 -53 -54 -52 0
58 54 -52 0
58 -54 52 0
-58 54 52 0
-58 -54 -52 0
59 -57 11 0
59 -57 58 0
-59 57 11 0
-59 57 58 0
59 -57 54 -33 0
59 -57 -54 33 0
-59 57 54 -33 0
-59 57 -54 33 0
59 57 -11 54 33 -58 0
59 57 -11 -54 -33 -58 0
-59 -57 -11 54 33 -58 0
-59 -57 -11 -54 -33 -58 0
61 11 -54 0
61 -11 54 0
-61 11 54 0
-61 -11 -54 0
60 33 -58 0
60 -33 58 0
-60 33 58 0
-60 -33 -58 0
62 -59 61 0
62 -59 58 0
-62 59 61 0
-62 59 58 0
62 59 -61 -58 0
-62 -59 -61 -58 0
63 61 -58 0
63 -61 58 0
-63 61 58 0
-63 -61 -58 0
64 65 -62 0
64 -62 63 0
-64 65 62 0
-64 62 63 0
64 -62 -61 0
-64 62 -61 0
64 -65 62 61 -63 0
-64 -65 -62 61 -63 0
65 -61 63 0
-65 61 63 0
-66 63 0
65 -66 -61 0
-65 -66 61 0
65 66 61 -63 0
-65 66 -61 -63 0
-67 63 0
65 -67 61 0
-65 -67 -61 0
65 67 -61 -63 0
-65 67 61 -63 0
68 -64 65 0
68 -64 63 0
-68 64 65 0
-68 64 63 0
68 64 -65 -63 0
-68 -64 -65 -63 0
69 65 -63 0
69 -65 63 0
-69 65 63 0
-69 -65 -63 0
70 -68 65 0
70 -68 69 0
-70 68 65 0
-70 68 69 0
70 68 -65 -69 0
-70 -68 -65 -69 0
71 65 -69 0
71 -65 69 0
-71 65 69 0
-71 -65 -69 0
72 73 -70 0
72 -70 71 0
-72 73 70 0
-72 70 71 0
72 -70 -65 0
-72 70 -65 0
72 -73 70 65 -71 0
-72 -73 -70 65 -71 0
73 -65 71 0
-73 65 71 0
-74 71 0
73 -74 -65 0
-73 -74 65 0
73 74 65 -71 0
-73 74 -65 -71 0
-75 71 0
73 -75 65 0
-73 -75 -65 0
73 75 -65 -71 0
-73 75 65 -71 0
76 -72 73 0
76 -72 71 0
-76 72 73 0
-76 72 71 0
76 72 -73 -71 0
-76 -72 -73 -71 0
77 73 -71 0
77 -73 71 0
-77 73 71 0
-77 -73 -71 0
78 -76 38 0
78 -76 77 0
-78 76 38 0
-78 76 77 0
78 -76 73 -42 0
78 -76 -73 42 0
-78 76 73 -42 0
-78 76 -73 42 0
78 76 -38 73 42 -77 0
78 76 -38 -73 -42 -77 0
-78 -76 -38 73 42 -77 0
-78 -76 -38 -73 -42 -77 0
80 38 -73 0
80 -38 73 0
-80 38 73 0
-80 -38 -73 0
79 42 -77 0
79 -42 77 0
-79 42 77 0
-79 -42 -77 0
81 -78 80 0
81 -78 77 0
-81 78 80 0
-81 78 77 0
81 78 -80 -77 0
-81 -78 -80 -77 0
82 80 -77 0
82 -80 77 0
-82 80 77 0
-82 -80 -77 0
83 84 -81 0
83 -81 82 0
-83 84 81 0
-83 81 82 0
83 -81 -80 0
-83 81 -80 0
83 -84 81 80 -82 0
-83 -84 -81 80 -82 0
84 -80 82 0
-84 80 82 0
-85 82 0
84 -85 -80 0
-84 -85 80 0
84 85 80 -82 0
-84 85 -80 -82 0
-86 82 0
84 -86 80 0
-84 -86 -80 0
84 86 -80 -82 0
-84 86 80 -82 0
87 -83 84 0
87 -83 82 0
-87 83 84 0
-87 83 82 0
87 83 -84 -82 0
-87 -83 -84 -82 0
88 84 -82 0
88 -84 82 0
-88 84 82 0
-88 -84 -82 0
